12 66
1 2 4
1 3 3
1 4 3
1 5 3
1 6 2
1 7 1
1 8 3
1 9 3
1 10 1
1 11 2
1 12 3
2 3 4
2 4 2
2 5 5
2 6 1
2 7 3
2 8 5
2 9 2
2 10 3
2 11 5
2 12 5
3 4 5
3 5 5
3 6 2
3 7 1
3 8 5
3 9 3
3 10 1
3 11 5
3 12 4
4 5 4
4 6 1
4 7 3
4 8 3
4 9 3
4 10 5
4 11 2
4 12 5
5 6 3
5 7 1
5 8 2
5 9 1
5 10 1
5 11 3
5 12 3
6 7 2
6 8 5
6 9 4
6 10 5
6 11 5
6 12 2
7 8 1
7 9 4
7 10 4
7 11 1
7 12 3
8 9 3
8 10 3
8 11 5
8 12 3
9 10 1
9 11 5
9 12 4
10 11 1
10 12 3
11 12 5
